194
0 111 176 78 103 83 80 137 106 44 
120 38 134 48 113 126 8 91 76 122 
96 59 164 21 73 40 101 116 173 5 
150 128 28 49 34 39 168 127 98 174 
55 13 74 154 189 11 31 175 23 139 
7 57 144 52 130 46 155 10 65 67 
42 143 192 102 87 147 142 72 132 75 
84 69 124 112 27 22 157 58 15 141 
4 51 110 156 1 193 81 146 30 145 
6 18 41 17 138 37 47 153 163 191 
24 160 66 25 45 180 89 125 136 43 
177 32 29 26 88 77 95 109 36 90 
63 16 172 3 33 108 186 188 115 114 
119 185 35 161 56 71 118 184 107 166 
129 50 152 54 187 99 85 64 178 104 
140 60 131 100 9 14 169 94 92 190 
182 105 165 181 183 86 159 117 123 12 
2 148 149 19 70 121 158 82 68 61 
53 167 79 93 170 151 20 179 133 97 
135 62 171 162 
